
;this file is automatically generated: Sun Oct 25 10:43:47 CST 2020

;declarations generated

(declare-fun oclExcludes ( Int Int) Bool)
(declare-fun type_c9374f51_3c08_416e_af89_1c1fc4931948_Class14 ( Int) Bool)
(declare-fun type_c9374f51_3c08_416e_af89_1c1fc4931948_Class18 ( Int) Bool)
(declare-fun type_c9374f51_3c08_416e_af89_1c1fc4931948_Class19 ( Int) Bool)
(declare-fun Cardinality ( Int) Int)
(declare-fun class14_Class14IntAttr4 ( Int) Int)
(declare-fun class14_Class14IntAttr3 ( Int) Int)
(declare-fun type_c9374f51_3c08_416e_af89_1c1fc4931948_Class2 ( Int) Bool)
(declare-fun obj_31eb0b35_be6c_4857_8140_bdd8738119ff ( Int) Int)
(declare-fun oclSelect ( Int Bool) Int)
(declare-fun Enum0 ( Int) Int)
(declare-fun Enum1 ( Int) Int)
(declare-fun container_ ( Int) Int)
(declare-fun oclIncludes ( Int Int) Bool)
(declare-fun ObjAt ( Int Int) Int)

;formula(s) generated
(assert (! (forall ((c4_2 Int)(c4_1 Int)) (=> (and (and (and (and ( type_c9374f51_3c08_416e_af89_1c1fc4931948_Class14 c4_1 )  ( type_c9374f51_3c08_416e_af89_1c1fc4931948_Class18 c4_1 ) ) ( type_c9374f51_3c08_416e_af89_1c1fc4931948_Class19 c4_1 ) ) ( type_c9374f51_3c08_416e_af89_1c1fc4931948_Class2 c4_1 ) ) (and (and (and ( type_c9374f51_3c08_416e_af89_1c1fc4931948_Class14 c4_2 )  ( type_c9374f51_3c08_416e_af89_1c1fc4931948_Class18 c4_2 ) ) ( type_c9374f51_3c08_416e_af89_1c1fc4931948_Class19 c4_2 ) ) ( type_c9374f51_3c08_416e_af89_1c1fc4931948_Class2 c4_2 ) )) (< ( class14_Class14IntAttr3 ( obj_31eb0b35_be6c_4857_8140_bdd8738119ff c4_1 )  )  ( class14_Class14IntAttr4 ( obj_31eb0b35_be6c_4857_8140_bdd8738119ff c4_2 )  ) ))):named l0))
(assert (exists ((o Int)) (and (and (and ( type_c9374f51_3c08_416e_af89_1c1fc4931948_Class14 ( obj_31eb0b35_be6c_4857_8140_bdd8738119ff o )  )  ( type_c9374f51_3c08_416e_af89_1c1fc4931948_Class18 ( obj_31eb0b35_be6c_4857_8140_bdd8738119ff o )  ) ) ( type_c9374f51_3c08_416e_af89_1c1fc4931948_Class19 ( obj_31eb0b35_be6c_4857_8140_bdd8738119ff o )  ) ) ( type_c9374f51_3c08_416e_af89_1c1fc4931948_Class2 ( obj_31eb0b35_be6c_4857_8140_bdd8738119ff o )  ) )))

 ;end of formula 